(set-info :source |
 Generated by Alive 0.1
 More info in N. P. Lopes, D. Menendez, S. Nagarakatte, J. Regehr.
 Provably Correct Peephole Optimizations with Alive. In PLDI'15.
|)

(set-info :status unknown)
(declare-fun C () (_ BitVec 28))
(declare-fun %x () (_ BitVec 28))
(assert
 (let ((?x122593 (bvneg C)))
 (let ((?x118984 (bvadd %x ?x122593)))
 (let ((?x82386 (bvsub %x C)))
 (let (($x85434 (and (distinct ?x82386 ?x118984) true)))
 (let (($x99765 (and (distinct C (bvshl (_ bv1 28) (bvsub (_ bv28 28) (_ bv1 28)))) true)))
 (let (($x107998 (= (bvsub ((_ sign_extend 1) %x) ((_ sign_extend 1) C)) ((_ sign_extend 1) ?x82386))))
 (and $x107998 $x99765 $x85434))))))))
(check-sat)
